Maximize
  55.6217221777089 x_0 + 49.99168508456909 x_1 + 24.84785930316407 x_2
   + 37.8345751366475 x_3 + 37.20781065439279 x_4 + 44.15231699122773 x_5
   + 34.98926217741797 x_6 + 38.60808117596959 x_7 + 65.17173236836825 x_8
   + 50.1118859716231 x_9 + 0.8621421016071213 y_0_1
   + 3.436454250514775 y_0_2 + 0.8002671887547965 y_0_3
   + 8.091433238172717 y_0_4 + 4.613850624044959 y_0_5
   - 6.792723182853114 y_0_6 + 0.0535979750769453 y_0_7
   + 8.02842934465875 y_0_8 - 0.2512814408673298 y_0_9
   + 0.1207154377277915 y_1_2 + 2.099973938574613 y_1_3
   + 4.60872142887989 y_1_4 - 3.797988207831732 y_1_5
   - 5.392969814954593 y_1_6 - 3.95150039056389 y_1_7
   + 2.090202597377258 y_1_8 - 5.13912773673759 y_1_9
   + 0.1358277856142331 y_2_3 - 4.950488158157438 y_2_4
   + 2.771948958775894 y_2_5 + 1.817991967143405 y_2_6
   + 0.6643428196232577 y_2_7 - 4.680151311965616 y_2_8
   + 4.899501116178467 y_2_9 + 4.856436236347305 y_3_4
   - 2.965444340724003 y_3_5 - 1.228796828666818 y_3_6
   - 3.562961107706452 y_3_7 - 4.50014239858381 y_3_8
   + 5.334842489167594 y_3_9 + 2.361869878496406 y_4_5
   + 2.438476531908285 y_4_6 + 1.133126106509832 y_4_7
   - 3.988929520941651 y_4_8 + 2.134473366231217 y_4_9
   - 2.265890965230437 y_5_6 - 3.762263032615303 y_5_7
   - 5.276082212317316 y_5_8 - 2.65155866127054 y_5_9
   + 2.482499892552658 y_6_7 + 1.40748370898898 y_6_8
   + 5.441226624978757 y_6_9 - 0.4951995854962652 y_7_8
   + 4.351752807476642 y_7_9 + 9.002829449506283 y_8_9
Subject To
 R0: 29.87559515563771 x_0 + 35.65874940110371 x_1 + 32.05563709046692 x_2
   + 28.08496455894783 x_3 + 37.96625164663419 x_4 + 35.86757433880121 x_5
   + 28.70837887283415 x_6 + 26.56300550885499 x_7 + 31.37873717071488 x_8
   + 35.29645018372685 x_9 <= 100
 R1: - x_0 + y_0_1 <= 0
 R2: - x_1 + y_0_1 <= 0
 R3: x_0 + x_1 - y_0_1 <= 1
 R4: - x_0 + y_0_2 <= 0
 R5: - x_2 + y_0_2 <= 0
 R6: x_0 + x_2 - y_0_2 <= 1
 R7: - x_0 + y_0_3 <= 0
 R8: - x_3 + y_0_3 <= 0
 R9: x_0 + x_3 - y_0_3 <= 1
 R10: - x_0 + y_0_4 <= 0
 R11: - x_4 + y_0_4 <= 0
 R12: x_0 + x_4 - y_0_4 <= 1
 R13: - x_0 + y_0_5 <= 0
 R14: - x_5 + y_0_5 <= 0
 R15: x_0 + x_5 - y_0_5 <= 1
 R16: - x_0 + y_0_6 <= 0
 R17: - x_6 + y_0_6 <= 0
 R18: x_0 + x_6 - y_0_6 <= 1
 R19: - x_0 + y_0_7 <= 0
 R20: - x_7 + y_0_7 <= 0
 R21: x_0 + x_7 - y_0_7 <= 1
 R22: - x_0 + y_0_8 <= 0
 R23: - x_8 + y_0_8 <= 0
 R24: x_0 + x_8 - y_0_8 <= 1
 R25: - x_0 + y_0_9 <= 0
 R26: - x_9 + y_0_9 <= 0
 R27: x_0 + x_9 - y_0_9 <= 1
 R28: - x_1 + y_1_2 <= 0
 R29: - x_2 + y_1_2 <= 0
 R30: x_1 + x_2 - y_1_2 <= 1
 R31: - x_1 + y_1_3 <= 0
 R32: - x_3 + y_1_3 <= 0
 R33: x_1 + x_3 - y_1_3 <= 1
 R34: - x_1 + y_1_4 <= 0
 R35: - x_4 + y_1_4 <= 0
 R36: x_1 + x_4 - y_1_4 <= 1
 R37: - x_1 + y_1_5 <= 0
 R38: - x_5 + y_1_5 <= 0
 R39: x_1 + x_5 - y_1_5 <= 1
 R40: - x_1 + y_1_6 <= 0
 R41: - x_6 + y_1_6 <= 0
 R42: x_1 + x_6 - y_1_6 <= 1
 R43: - x_1 + y_1_7 <= 0
 R44: - x_7 + y_1_7 <= 0
 R45: x_1 + x_7 - y_1_7 <= 1
 R46: - x_1 + y_1_8 <= 0
 R47: - x_8 + y_1_8 <= 0
 R48: x_1 + x_8 - y_1_8 <= 1
 R49: - x_1 + y_1_9 <= 0
 R50: - x_9 + y_1_9 <= 0
 R51: x_1 + x_9 - y_1_9 <= 1
 R52: - x_2 + y_2_3 <= 0
 R53: - x_3 + y_2_3 <= 0
 R54: x_2 + x_3 - y_2_3 <= 1
 R55: - x_2 + y_2_4 <= 0
 R56: - x_4 + y_2_4 <= 0
 R57: x_2 + x_4 - y_2_4 <= 1
 R58: - x_2 + y_2_5 <= 0
 R59: - x_5 + y_2_5 <= 0
 R60: x_2 + x_5 - y_2_5 <= 1
 R61: - x_2 + y_2_6 <= 0
 R62: - x_6 + y_2_6 <= 0
 R63: x_2 + x_6 - y_2_6 <= 1
 R64: - x_2 + y_2_7 <= 0
 R65: - x_7 + y_2_7 <= 0
 R66: x_2 + x_7 - y_2_7 <= 1
 R67: - x_2 + y_2_8 <= 0
 R68: - x_8 + y_2_8 <= 0
 R69: x_2 + x_8 - y_2_8 <= 1
 R70: - x_2 + y_2_9 <= 0
 R71: - x_9 + y_2_9 <= 0
 R72: x_2 + x_9 - y_2_9 <= 1
 R73: - x_3 + y_3_4 <= 0
 R74: - x_4 + y_3_4 <= 0
 R75: x_3 + x_4 - y_3_4 <= 1
 R76: - x_3 + y_3_5 <= 0
 R77: - x_5 + y_3_5 <= 0
 R78: x_3 + x_5 - y_3_5 <= 1
 R79: - x_3 + y_3_6 <= 0
 R80: - x_6 + y_3_6 <= 0
 R81: x_3 + x_6 - y_3_6 <= 1
 R82: - x_3 + y_3_7 <= 0
 R83: - x_7 + y_3_7 <= 0
 R84: x_3 + x_7 - y_3_7 <= 1
 R85: - x_3 + y_3_8 <= 0
 R86: - x_8 + y_3_8 <= 0
 R87: x_3 + x_8 - y_3_8 <= 1
 R88: - x_3 + y_3_9 <= 0
 R89: - x_9 + y_3_9 <= 0
 R90: x_3 + x_9 - y_3_9 <= 1
 R91: - x_4 + y_4_5 <= 0
 R92: - x_5 + y_4_5 <= 0
 R93: x_4 + x_5 - y_4_5 <= 1
 R94: - x_4 + y_4_6 <= 0
 R95: - x_6 + y_4_6 <= 0
 R96: x_4 + x_6 - y_4_6 <= 1
 R97: - x_4 + y_4_7 <= 0
 R98: - x_7 + y_4_7 <= 0
 R99: x_4 + x_7 - y_4_7 <= 1
 R100: - x_4 + y_4_8 <= 0
 R101: - x_8 + y_4_8 <= 0
 R102: x_4 + x_8 - y_4_8 <= 1
 R103: - x_4 + y_4_9 <= 0
 R104: - x_9 + y_4_9 <= 0
 R105: x_4 + x_9 - y_4_9 <= 1
 R106: - x_5 + y_5_6 <= 0
 R107: - x_6 + y_5_6 <= 0
 R108: x_5 + x_6 - y_5_6 <= 1
 R109: - x_5 + y_5_7 <= 0
 R110: - x_7 + y_5_7 <= 0
 R111: x_5 + x_7 - y_5_7 <= 1
 R112: - x_5 + y_5_8 <= 0
 R113: - x_8 + y_5_8 <= 0
 R114: x_5 + x_8 - y_5_8 <= 1
 R115: - x_5 + y_5_9 <= 0
 R116: - x_9 + y_5_9 <= 0
 R117: x_5 + x_9 - y_5_9 <= 1
 R118: - x_6 + y_6_7 <= 0
 R119: - x_7 + y_6_7 <= 0
 R120: x_6 + x_7 - y_6_7 <= 1
 R121: - x_6 + y_6_8 <= 0
 R122: - x_8 + y_6_8 <= 0
 R123: x_6 + x_8 - y_6_8 <= 1
 R124: - x_6 + y_6_9 <= 0
 R125: - x_9 + y_6_9 <= 0
 R126: x_6 + x_9 - y_6_9 <= 1
 R127: - x_7 + y_7_8 <= 0
 R128: - x_8 + y_7_8 <= 0
 R129: x_7 + x_8 - y_7_8 <= 1
 R130: - x_7 + y_7_9 <= 0
 R131: - x_9 + y_7_9 <= 0
 R132: x_7 + x_9 - y_7_9 <= 1
 R133: - x_8 + y_8_9 <= 0
 R134: - x_9 + y_8_9 <= 0
 R135: x_8 + x_9 - y_8_9 <= 1
Bounds
Binaries
 x_0 x_1 x_2 x_3 x_4 x_5 x_6 x_7 x_8 x_9 y_0_1 y_0_2 y_0_3 y_0_4 y_0_5
 y_0_6 y_0_7 y_0_8 y_0_9 y_1_2 y_1_3 y_1_4 y_1_5 y_1_6 y_1_7 y_1_8 y_1_9
 y_2_3 y_2_4 y_2_5 y_2_6 y_2_7 y_2_8 y_2_9 y_3_4 y_3_5 y_3_6 y_3_7 y_3_8
 y_3_9 y_4_5 y_4_6 y_4_7 y_4_8 y_4_9 y_5_6 y_5_7 y_5_8 y_5_9 y_6_7 y_6_8
 y_6_9 y_7_8 y_7_9 y_8_9
End
